proyfinal/src/viki/013/experimentInOfficeAgust.take6.output/5ddedcd4-89fc-4ed7-9a1d-cd89c61fad33.als.dat
{'cnf.clauses': '118081',
 'cnf.totvars': '69608',
 'conflict literals': '1014',
 'conflicts': '141',
 'decisions': '10959',
 'memused.mb': '15.31',
 'outcome': 'UNSAT',
 'propagations': '193828',
 'restarts': '2',
 'solver.msecs': 32,
 'task.msecs': 187}
