proyfinal/src/viki/013/experimentInOfficeAgust.take6.output/5ddedcd4-89fc-4ed7-9a1d-cd89c61fad33.als.out
Reading from standard input... Use '--help' for help.
============================[ Problem Statistics ]=============================
|                                                                             |
|  Number of variables:         69608                                         |
|  Number of clauses:          118081                                         |
|  Parse time:                   0.02 s                                       |
|                                                                             |
============================[ Search Statistics ]==============================
| Conflicts |          ORIGINAL         |          LEARNT          | Progress |
|           |    Vars  Clauses Literals |    Limit  Clauses Lit/Cl |          |
===============================================================================
|       100 |   55925    79174   196285 |    29030       94      8 | 19.657 % |
===============================================================================
restarts              : 2
conflicts             : 141            (4349 /sec)
decisions             : 10959          (0.00 % random) (337990 /sec)
propagations          : 193828         (5977918 /sec)
conflict literals     : 1014           (22.06 % deleted)
Memory used           : 15.31 MB
CPU time              : 0.032424 s

UNSATISFIABLE
